40
2 0 1
2 1 6
3 1 2
4 0 2
4 3 9
5 0 8
5 1 8
5 4 7
7 3 3
7 4 7
7 5 8
8 0 2
8 1 8
8 3 8
8 5 7
8 6 9
9 0 2
9 4 1
9 6 2
9 8 7
10 1 6
10 2 1
10 4 9
10 5 6
10 6 2
10 9 4
11 0 2
11 2 8
11 6 6
11 8 1
11 9 6
12 0 5
12 2 6
12 4 4
12 7 9
12 8 6
12 9 8
12 10 5
12 11 4
13 1 5
13 3 5
13 4 5
13 5 1
13 8 6
13 9 8
13 12 2
14 1 6
14 4 7
14 5 3
14 8 9
14 9 9
14 11 7
14 13 3
15 4 3
15 5 6
15 6 2
15 7 8
15 9 6
15 11 4
16 2 3
16 3 1
16 5 8
16 8 7
16 9 5
16 10 4
17 0 9
17 1 3
17 2 6
17 3 5
17 4 2
17 5 1
17 6 3
17 11 5
17 15 4
17 16 3
18 2 8
18 3 6
18 4 8
18 6 5
18 7 9
18 8 8
18 12 5
18 14 5
18 17 6
19 0 6
19 1 8
19 3 3
19 4 4
19 6 8
19 9 1
19 10 9
19 12 9
19 15 9
19 16 6
19 17 4
19 18 4
20 1 5
20 2 2
20 3 5
20 4 4
20 5 6
20 7 5
20 8 4
20 10 7
20 12 2
20 13 9
20 15 6
20 17 9
20 18 6
20 19 5
21 0 8
21 1 3
21 4 5
21 5 3
21 6 8
21 9 5
21 12 8
21 15 9
21 18 6
21 19 7
21 20 9
22 0 9
22 3 6
22 4 8
22 7 5
22 8 4
22 9 1
22 10 7
22 11 7
22 14 2
22 16 7
23 0 3
23 5 2
23 6 1
23 8 6
23 10 3
23 12 6
23 19 6
23 21 3
23 22 7
24 1 7
24 2 4
24 5 9
24 6 5
24 7 5
24 10 3
24 12 5
24 13 9
24 14 6
24 16 2
24 17 8
24 20 4
24 21 2
24 22 5
24 23 7
25 1 3
25 5 6
25 6 5
25 7 7
25 8 3
25 9 9
25 10 6
25 12 5
25 14 9
25 15 3
25 16 3
25 23 5
25 24 7
26 2 3
26 4 2
26 5 6
26 6 6
26 10 1
26 12 8
26 15 7
26 16 5
26 17 7
26 18 6
26 19 2
26 20 4
26 22 5
26 23 7
26 24 6
26 25 5
27 7 6
27 8 2
27 9 4
27 11 9
27 12 1
27 13 9
27 14 4
27 15 4
27 16 8
27 18 3
27 20 7
27 21 3
27 22 7
27 25 5
27 26 1
28 1 1
28 4 8
28 6 3
28 7 5
28 8 7
28 11 2
28 13 6
28 16 5
28 18 2
28 20 7
28 23 9
28 25 2
28 27 4
29 0 5
29 2 3
29 4 5
29 5 7
29 6 6
29 8 4
29 9 5
29 10 6
29 13 5
29 14 1
29 15 1
29 16 6
29 18 1
29 20 3
29 21 1
29 24 7
29 28 8
30 2 1
30 5 6
30 9 9
30 13 9
30 16 3
30 17 2
30 19 7
30 23 7
30 27 6
30 29 4
31 0 5
31 3 4
31 4 9
31 5 4
31 6 8
31 7 6
31 8 6
31 9 5
31 12 1
31 13 7
31 14 4
31 15 5
31 16 4
31 19 4
31 25 6
31 28 1
32 0 3
32 2 4
32 3 3
32 8 1
32 10 7
32 11 8
32 13 7
32 15 9
32 17 4
32 19 6
32 20 2
32 28 2
32 29 7
32 30 9
33 2 6
33 4 5
33 5 7
33 6 6
33 7 3
33 8 6
33 9 4
33 11 8
33 14 5
33 17 8
33 18 7
33 19 6
33 20 7
33 22 5
33 23 1
33 24 8
33 25 3
33 27 5
33 29 9
33 30 1
34 5 6
34 9 7
34 11 8
34 12 2
34 13 2
34 16 5
34 21 6
34 23 1
34 24 3
34 33 9
35 1 5
35 2 7
35 3 5
35 5 4
35 6 4
35 7 2
35 8 1
35 11 8
35 12 1
35 13 2
35 15 7
35 16 1
35 17 8
35 18 5
35 20 6
35 21 7
35 23 4
35 25 5
35 26 1
35 28 3
35 29 9
35 30 1
35 34 4
36 0 6
36 1 4
36 3 1
36 8 5
36 9 2
36 12 6
36 14 7
36 15 1
36 17 8
36 18 4
36 19 5
36 22 8
36 31 5
36 32 5
36 35 2
37 0 6
37 4 5
37 5 6
37 11 6
37 12 9
37 16 5
37 26 9
37 27 1
37 28 2
37 31 4
37 33 7
37 34 5
37 36 4
38 2 7
38 3 2
38 5 7
38 6 7
38 8 1
38 9 4
38 10 1
38 12 3
38 16 5
38 17 5
38 18 4
38 20 2
38 22 4
38 24 9
38 27 8
38 31 6
38 32 1
38 34 9
38 36 9
39 2 6
39 5 5
39 7 5
39 12 4
39 13 7
39 14 9
39 17 5
39 19 8
39 25 1
39 27 8
39 30 5
39 31 8
39 33 2
39 34 5
39 36 5
39 37 4
39 38 6
